! B97-3c LOOSEOPT Grid3 NoFinalGrid MiniPrint NoMOPrint

* xyz uuuuu 
xxxxx
*
