! RI-wB2PLYP SP def2-mSVP def2-SVP/C RIJCOSX def2/J NormalSCF MiniPrint NoMOPrint Grid4 NoFinalGrid KDIIS NOSOSCF FLOAT
%scf
GuessMode FMatrix
MaxIter 512
DirectResetFreq 10
DIISMaxEq 10
end
%cis
mode riints_disk
nroots 4
triplets true
dcorr 1
ETol 1e-4
RTol 1e-4
MaxDim 3
MaxIter 512
end

* xyz uuuuu 
xxxxx
*
